N = 52;
P = 145;
T = 94;
E = 137;

u_dual_edges = [1, 1, 2, 3, 3, 4, 5, 5, 6, 6, 7, 7, 8, 9, 9, 10, 11, 11, 12, 12, 13, 13, 14, 14, 15, 16, 16, 16, 17, 18, 18, 19, 19, 20, 21, 21, 21, 22, 23, 23, 23, 24, 25, 27, 27, 28, 29, 29, 30, 30, 31, 31, 32, 33, 33, 34, 35, 36, 37, 37, 39, 39, 39, 40, 41, 42, 42, 43, 44, 44, 44, 45, 45, 46, 47, 47, 48, 49, 49, 50, 52, 52, 53, 53, 54, 55, 56, 56, 57, 57, 58, 58, 59, 60, 61, 61, 62, 63, 64, 65, 65, 66, 67, 67, 68, 69, 71, 71, 72, 73, 74, 74, 75, 76, 76, 77, 77, 78, 78, 79, 81, 81, 82, 83, 84, 85, 86, 86, 87, 88, 88, 89, 90, 90, 91, 92, 93];
v_dual_edges = [9, 2, 19, 8, 4, 26, 17, 14, 7, 8, 27, 10, 18, 20, 10, 31, 12, 34, 63, 22, 15, 35, 40, 15, 38, 17, 48, 25, 41, 28, 24, 61, 20, 42, 36, 22, 64, 33, 24, 25, 51, 26, 26, 28, 30, 29, 50, 83, 82, 32, 43, 32, 65, 36, 34, 35, 38, 37, 38, 45, 53, 40, 46, 41, 47, 52, 43, 66, 57, 84, 49, 46, 75, 59, 54, 48, 51, 55, 50, 51, 71, 62, 54, 56, 55, 69, 70, 60, 67, 58, 59, 74, 60, 68, 62, 63, 73, 64, 79, 66, 81, 72, 68, 69, 70, 70, 73, 72, 77, 80, 75, 76, 78, 88, 85, 80, 87, 86, 79, 80, 93, 82, 83, 84, 85, 94, 87, 89, 92, 90, 89, 91, 91, 94, 92, 93, 94];

subtree_node_indices = [65, 66, 72, 77, 81, 87, 92, 93, 1, 6, 7, 9, 10, 12, 21, 22, 63, 64, 39, 40, 41, 47, 53, 54, 68, 60, 70, 56, 69, 70, 53, 54, 55, 56, 1, 2, 33, 34, 35, 36, 37, 38, 34, 11, 13, 35, 35, 13, 38, 15, 4, 5, 16, 17, 25, 26, 41, 47, 48, 17, 16, 3, 4, 8, 18, 24, 26, 3, 6, 8, 39, 46, 53, 56, 59, 60, 82, 83, 27, 28, 29, 30, 2, 11, 12, 19, 61, 63, 73, 79, 80, 61, 62, 63, 64, 33, 36, 21, 22, 65, 66, 43, 31, 32, 42, 19, 20, 52, 61, 62, 71, 72, 73, 77, 80, 66, 71, 72, 42, 43, 52, 67, 68, 69, 70, 47, 48, 49, 50, 51, 54, 55, 18, 50, 51, 23, 24, 28, 29, 25, 26, 23, 24, 48, 16, 51, 23, 25, 7, 10, 27, 30, 31, 32, 9, 10, 42, 43, 20, 31, 73, 52, 62, 71, 77, 78, 79, 80, 86, 87, 14, 5, 13, 15, 76, 85, 88, 90, 94, 90, 91, 92, 93, 94, 89, 90, 91, 88, 74, 76, 44, 84, 85, 57, 58, 67, 68, 57, 58, 59, 60, 74, 75, 76, 78, 86, 88, 89, 74, 75, 45, 46, 58, 59, 33, 34, 11, 12, 22, 1, 2, 9, 19, 20, 37, 38, 39, 40, 45, 14, 15, 46, 81, 82, 83, 84, 85, 93, 94, 36, 37, 75, 45, 78, 79, 21, 64, 44, 49, 50, 83, 84, 29, 6, 7, 8, 18, 27, 28, 67, 69, 44, 49, 55, 57, 86, 87, 89, 91, 92, 65, 81, 82, 30, 32, 5, 40, 41, 14, 17, 3, 4];

subtree_node_indices_start = [1, 9, 14, 19, 25, 29, 35, 37, 43, 47, 51, 57, 62, 68, 71, 77, 83, 89, 96, 100, 105, 111, 116, 122, 126, 133, 140, 144, 149, 155, 161, 165, 171, 175, 180, 185, 189, 196, 202, 209, 215, 220, 225, 233, 240, 248, 254, 260, 266, 271, 276, 281];
subtree_node_indices_length = [8, 5, 5, 6, 4, 6, 2, 6, 4, 4, 6, 5, 6, 3, 6, 6, 6, 7, 4, 5, 6, 5, 6, 4, 7, 7, 4, 5, 6, 6, 4, 6, 4, 5, 5, 4, 7, 6, 7, 6, 5, 5, 8, 7, 8, 6, 6, 6, 5, 5, 5, 2];

u_of_subtree_edges = [1, 1, 2, 3, 4, 5, 6, 7, 1, 2, 3, 4, 1, 1, 2, 2, 4, 1, 1, 2, 3, 4, 5, 3, 2, 1, 1, 3, 3, 4, 1, 2, 1, 1, 1, 1, 2, 3, 4, 5, 1, 3, 1, 2, 1, 3, 1, 1, 2, 3, 3, 5, 4, 3, 1, 1, 2, 1, 1, 2, 3, 4, 5, 1, 2, 1, 1, 2, 3, 4, 5, 3, 3, 4, 2, 1, 1, 1, 2, 3, 4, 5, 4, 4, 1, 6, 2, 1, 2, 2, 3, 1, 1, 3, 4, 1, 2, 1, 2, 2, 1, 1, 4, 5, 1, 1, 2, 3, 4, 4, 4, 1, 2, 1, 2, 1, 1, 2, 3, 1, 1, 2, 3, 3, 4, 6, 1, 1, 4, 3, 6, 2, 2, 3, 1, 2, 1, 1, 2, 4, 3, 1, 1, 1, 2, 3, 4, 5, 1, 1, 2, 3, 4, 3, 2, 2, 1, 1, 1, 1, 2, 2, 3, 5, 1, 3, 1, 1, 1, 2, 3, 4, 1, 1, 2, 3, 4, 2, 1, 1, 2, 3, 3, 6, 1, 1, 2, 4, 1, 3, 4, 5, 2, 1, 1, 1, 2, 3, 4, 5, 6, 3, 2, 4, 5, 1, 1, 3, 2, 4, 1, 1, 1, 1, 2, 3, 4, 4, 6, 2, 1, 1, 3, 3, 5, 1, 1, 2, 3, 4, 5, 6, 1, 7, 1, 2, 3, 6, 3, 5, 3, 4, 1, 1, 2, 4, 1, 1, 2, 3, 4, 5, 3, 3, 4, 2, 1, 1, 1, 1, 2, 3, 4, 3, 4, 1, 1, 2, 1, 1, 2, 3, 2, 1];
v_of_subtree_edges = [2, 5, 3, 4, 6, 8, 7, 8, 4, 3, 5, 5, 4, 3, 3, 5, 5, 5, 2, 3, 4, 6, 6, 4, 4, 2, 3, 4, 6, 5, 5, 6, 2, 2, 4, 2, 3, 6, 5, 6, 2, 4, 4, 4, 2, 4, 3, 6, 4, 4, 5, 6, 5, 5, 4, 2, 3, 3, 2, 6, 4, 5, 6, 3, 3, 3, 2, 5, 4, 6, 6, 4, 6, 5, 5, 6, 2, 4, 3, 6, 5, 6, 5, 6, 5, 7, 7, 3, 3, 3, 4, 4, 2, 4, 5, 5, 3, 2, 5, 3, 3, 4, 6, 6, 3, 2, 4, 5, 5, 6, 5, 5, 6, 3, 3, 2, 3, 4, 4, 6, 2, 5, 7, 4, 5, 7, 6, 5, 5, 4, 7, 7, 3, 4, 3, 4, 2, 2, 5, 5, 4, 3, 3, 2, 5, 4, 6, 6, 5, 2, 6, 5, 6, 4, 4, 3, 3, 4, 4, 6, 5, 3, 4, 6, 2, 4, 4, 3, 2, 5, 4, 5, 2, 5, 3, 4, 5, 4, 4, 3, 3, 6, 4, 7, 7, 2, 5, 5, 3, 4, 5, 6, 6, 2, 2, 3, 4, 6, 5, 7, 7, 4, 3, 6, 6, 5, 2, 4, 3, 5, 5, 2, 3, 2, 4, 5, 5, 6, 7, 7, 2, 5, 4, 8, 8, 6, 2, 3, 4, 5, 7, 7, 7, 8, 2, 4, 4, 8, 5, 6, 6, 6, 5, 2, 3, 5, 2, 3, 5, 4, 6, 6, 6, 4, 5, 5, 6, 2, 2, 3, 5, 4, 5, 4, 5, 5, 2, 3, 5, 4, 4, 5, 3, 2];

subtree_edges_length = [8, 4, 5, 6, 4, 6, 1, 6, 3, 4, 5, 5, 6, 2, 6, 6, 5, 7, 4, 5, 6, 5, 6, 4, 7, 7, 4, 5, 6, 6, 4, 6, 3, 5, 5, 4, 7, 6, 7, 6, 5, 5, 8, 7, 8, 6, 6, 6, 5, 5, 5, 1];

triangle_perimeters = [224, 935, 804, 1121, 1466, 3032, 2309, 895, 808, 1285, 1352, 907, 1154, 1344, 1174, 987, 860, 764, 951, 847, 502, 546, 395, 565, 945, 1045, 1263, 1231, 1116, 522, 659, 436, 282, 486, 446, 388, 883, 847, 587, 1146, 879, 608, 462, 324, 893, 625, 648, 756, 446, 1039, 900, 489, 210, 303, 343, 100, 152, 119, 186, 137, 730, 435, 624, 583, 462, 485, 110, 128, 144, 124, 431, 402, 300, 140, 550, 191, 234, 543, 542, 376, 546, 437, 419, 400, 286, 313, 205, 136, 239, 70, 181, 271, 372, 197];

dual_edge_costs = [103, 76, 408, 206, 279, 443, 285, 475, 1151, 365, 523, 635, 324, 315, 390, 260, 443, 239, 217, 247, 501, 83, 504, 365, 308, 387, 182, 418, 188, 186, 254, 253, 290, 242, 75, 207, 220, 92, 126, 110, 159, 185, 417, 539, 201, 506, 454, 156, 130, 191, 189, 210, 35, 126, 64, 183, 180, 187, 359, 337, 100, 245, 242, 397, 294, 187, 179, 94, 60, 139, 125, 293, 263, 90, 109, 245, 329, 148, 173, 412, 152, 150, 70, 40, 124, 71, 35, 25, 49, 43, 35, 41, 61, 51, 205, 272, 80, 135, 228, 210, 217, 181, 45, 16, 32, 57, 104, 175, 46, 116, 43, 56, 244, 59, 76, 97, 91, 148, 151, 163, 154, 175, 132, 131, 130, 80, 50, 115, 64, 34, 43, 81, 15, 21, 85, 122, 96];

subtree_edge_indices = [100, 101, 102, 109, 117, 121, 129, 136, 1, 9, 12, 15, 19, 20, 36, 37, 98, 61, 62, 64, 65, 75, 83, 87, 88, 94, 105, 83, 84, 85, 86, 87, 106, 2, 54, 55, 56, 57, 58, 59, 18, 22, 56, 21, 22, 25, 57, 6, 7, 26, 28, 43, 26, 27, 29, 65, 76, 4, 5, 6, 13, 31, 42, 4, 10, 61, 63, 74, 84, 88, 93, 44, 45, 46, 48, 49, 123, 3, 17, 19, 32, 96, 95, 96, 97, 98, 99, 110, 120, 35, 36, 38, 54, 51, 52, 53, 68, 100, 32, 33, 34, 66, 82, 95, 107, 108, 109, 110, 116, 66, 67, 68, 81, 102, 108, 103, 104, 105, 106, 75, 76, 77, 78, 79, 80, 85, 30, 31, 39, 41, 46, 47, 80, 39, 40, 42, 43, 27, 28, 40, 41, 77, 11, 12, 16, 45, 50, 52, 14, 15, 16, 34, 51, 67, 81, 82, 97, 107, 116, 117, 118, 119, 120, 127, 8, 21, 24, 114, 115, 126, 130, 134, 133, 134, 135, 136, 137, 130, 131, 132, 133, 69, 70, 90, 92, 112, 115, 125, 89, 90, 91, 93, 94, 103, 111, 112, 113, 114, 118, 128, 131, 72, 73, 74, 91, 92, 111, 17, 18, 20, 38, 55, 1, 2, 3, 14, 33, 23, 24, 25, 59, 60, 62, 63, 72, 121, 122, 123, 124, 125, 126, 137, 35, 37, 58, 60, 73, 99, 113, 119, 47, 48, 70, 71, 79, 124, 9, 10, 11, 13, 30, 44, 69, 71, 78, 86, 89, 104, 127, 128, 129, 132, 135, 49, 50, 53, 101, 122, 7, 8, 23, 29, 64, 5];
subtree_edge_indices_start = [1, 9, 13, 18, 24, 28, 34, 35, 41, 44, 48, 53, 58, 64, 66, 72, 78, 83, 90, 94, 99, 105, 110, 116, 120, 127, 134, 138, 143, 149, 155, 159, 165, 168, 173, 178, 182, 189, 195, 202, 208, 213, 218, 226, 233, 241, 247, 253, 259, 264, 269, 274];

pe_triangle_incidence_indices = [1, 9, 1, 2, 1, 2, 19, 2, 3, 8, 3, 3, 4, 4, 26, 4, 5, 17, 5, 5, 14, 6, 7, 6, 6, 8, 7, 27, 7, 10, 8, 18, 9, 20, 9, 10, 10, 31, 11, 12, 11, 34, 11, 12, 63, 12, 22, 13, 15, 13, 13, 35, 14, 40, 14, 15, 15, 38, 16, 17, 16, 48, 16, 25, 17, 41, 18, 28, 18, 24, 19, 61, 19, 20, 20, 42, 21, 36, 21, 22, 21, 64, 22, 33, 23, 24, 23, 25, 23, 51, 24, 26, 25, 26, 27, 28, 27, 30, 28, 29, 29, 50, 29, 83, 30, 82, 30, 32, 31, 43, 31, 32, 32, 65, 33, 36, 33, 34, 34, 35, 35, 38, 36, 37, 37, 38, 37, 45, 39, 53, 39, 40, 39, 46, 40, 41, 41, 47, 42, 52, 42, 43, 43, 66, 44, 57, 44, 84, 44, 49, 45, 46, 45, 75, 46, 59, 47, 54, 47, 48, 48, 51, 49, 55, 49, 50, 50, 51, 52, 71, 52, 62, 53, 54, 53, 56, 54, 55, 55, 69, 56, 70, 56, 60, 57, 67, 57, 58, 58, 59, 58, 74, 59, 60, 60, 68, 61, 62, 61, 63, 62, 73, 63, 64, 64, 79, 65, 66, 65, 81, 66, 72, 67, 68, 67, 69, 68, 70, 69, 70, 71, 73, 71, 72, 72, 77, 73, 80, 74, 75, 74, 76, 75, 78, 76, 88, 76, 85, 77, 80, 77, 87, 78, 86, 78, 79, 79, 80, 81, 93, 81, 82, 82, 83, 83, 84, 84, 85, 85, 94, 86, 87, 86, 89, 87, 92, 88, 90, 88, 89, 89, 91, 90, 91, 90, 94, 91, 92, 92, 93, 93, 94];
pe_triangle_incidence_start = [1, 3, 5, 6, 8, 9, 11, 12, 14, 16, 17, 19, 20, 22, 24, 25, 27, 29, 31, 33, 35, 37, 39, 41, 43, 44, 46, 48, 50, 51, 53, 55, 57, 59, 61, 63, 65, 67, 69, 71, 73, 75, 77, 79, 81, 83, 85, 87, 89, 91, 93, 95, 97, 99, 101, 103, 105, 107, 109, 111, 113, 115, 117, 119, 121, 123, 125, 127, 129, 131, 133, 135, 137, 139, 141, 143, 145, 147, 149, 151, 153, 155, 157, 159, 161, 163, 165, 167, 169, 171, 173, 175, 177, 179, 181, 183, 185, 187, 189, 191, 193, 195, 197, 199, 201, 203, 205, 207, 209, 211, 213, 215, 217, 219, 221, 223, 225, 227, 229, 231, 233, 235, 237, 239, 241, 243, 245, 247, 249, 251, 253, 255, 257, 259, 261, 263, 265, 267, 269, 271, 273, 275, 277, 279, 281];
pe_triangle_incidence_length = [2, 2, 1, 2, 1, 2, 1, 2, 2, 1, 2, 1, 2, 2, 1, 2, 2, 2, 2, 2, 2, 2, 2, 2, 1, 2, 2, 2, 1, 2, 2, 2, 2, 2, 2, 2, 2, 2, 2, 2, 2, 2, 2, 2, 2, 2, 2, 2, 2, 2, 2, 2, 2, 2, 2, 2, 2, 2, 2, 2, 2, 2, 2, 2, 2, 2, 2, 2, 2, 2, 2, 2, 2, 2, 2, 2, 2, 2, 2, 2, 2, 2, 2, 2, 2, 2, 2, 2, 2, 2, 2, 2, 2, 2, 2, 2, 2, 2, 2, 2, 2, 2, 2, 2, 2, 2, 2, 2, 2, 2, 2, 2, 2, 2, 2, 2, 2, 2, 2, 2, 2, 2, 2, 2, 2, 2, 2, 2, 2, 2, 2, 2, 2, 2, 2, 2, 2, 2, 2, 2, 2, 2, 2, 2, 2];
